param n := 120;
param c := 1000;
param : V : p w :=
   0	   6	 370
   1	  75	 286
   2	  22	 344
   3	  40	 362
   4	  75	 294
   5	  96	 344
   6	  78	 466
   7	  85	 263
   8	  49	 271
   9	  69	 485
  10	  27	 253
  11	  13	 262
  12	  15	 376
  13	  87	 304
  14	  50	 320
  15	  19	 413
  16	  16	 288
  17	  80	 299
  18	  73	 373
  19	  32	 277
  20	  51	 350
  21	  14	 426
  22	  16	 263
  23	  14	 311
  24	  42	 480
  25	  81	 255
  26	  28	 265
  27	  30	 381
  28	  96	 259
  29	  44	 360
  30	  86	 399
  31	  34	 272
  32	   5	 329
  33	  78	 429
  34	  14	 274
  35	   2	 297
  36	  72	 395
  37	  27	 258
  38	  48	 347
  39	  24	 463
  40	  62	 257
  41	  12	 280
  42	  58	 498
  43	  18	 250
  44	   8	 252
  45	  22	 412
  46	  71	 258
  47	  97	 330
  48	  33	 499
  49	  49	 250
  50	  49	 251
  51	  51	 458
  52	  95	 267
  53	  86	 275
  54	  15	 350
  55	  69	 283
  56	  49	 367
  57	  35	 434
  58	  82	 277
  59	  24	 289
  60	  71	 370
  61	  74	 273
  62	  41	 357
  63	  99	 495
  64	  15	 250
  65	  20	 255
  66	  17	 464
  67	  80	 254
  68	  75	 282
  69	  98	 361
  70	  82	 290
  71	  81	 349
  72	  35	 351
  73	  82	 251
  74	  26	 398
  75	  42	 370
  76	   7	 287
  77	  65	 343
  78	  10	 428
  79	  81	 257
  80	  50	 315
  81	  75	 445
  82	  99	 272
  83	  63	 283
  84	  33	 440
  85	  38	 254
  86	  35	 306
  87	   4	 435
  88	  76	 279
  89	  58	 286
  90	  51	 451
  91	  15	 268
  92	  50	 281
  93	  55	 430
  94	  85	 261
  95	  13	 309
  96	  68	 368
  97	  99	 274
  98	  92	 358
  99	  16	 427
 100	  59	 250
 101	  65	 323
 102	  67	 444
 103	  41	 270
 104	  36	 286
 105	   6	 494
 106	  95	 250
 107	  24	 256
 108	  96	 368
 109	  35	 300
 110	  36	 332
 111	  70	 491
 112	  95	 253
 113	  70	 256
 114	 100	 426
 115	  69	 274
 116	  33	 300
 117	  33	 495
 118	  19	 250
 119	  29	 255
;

set E :=
   0	   6
   0	   9
   0	  11
   0	  12
   0	  14
   0	  15
   0	  27
   0	  33
   0	  35
   0	  36
   0	  38
   0	  39
   0	  40
   0	  41
   0	  43
   0	  44
   0	  45
   0	  46
   0	  48
   0	  59
   0	  62
   0	  63
   0	  68
   0	  69
   0	  70
   0	  71
   0	  74
   0	  75
   0	  76
   0	  79
   0	  80
   0	  83
   0	  84
   0	  85
   0	  86
   0	  87
   0	  88
   0	  91
   0	  94
   0	  96
   0	  98
   0	 103
   0	 104
   0	 105
   0	 109
   0	 118
   1	   3
   1	   9
   1	  10
   1	  12
   1	  13
   1	  16
   1	  19
   1	  21
   1	  24
   1	  29
   1	  36
   1	  37
   1	  38
   1	  39
   1	  44
   1	  45
   1	  46
   1	  51
   1	  53
   1	  56
   1	  60
   1	  64
   1	  66
   1	  67
   1	  72
   1	  78
   1	  87
   1	  88
   1	  95
   1	  97
   1	  98
   1	  99
   1	 102
   1	 104
   1	 109
   1	 112
   1	 116
   1	 117
   2	   3
   2	   8
   2	  10
   2	  12
   2	  13
   2	  15
   2	  16
   2	  18
   2	  24
   2	  26
   2	  28
   2	  31
   2	  34
   2	  35
   2	  37
   2	  38
   2	  48
   2	  53
   2	  55
   2	  56
   2	  58
   2	  63
   2	  65
   2	  67
   2	  76
   2	  81
   2	  83
   2	  88
   2	  89
   2	  90
   2	  96
   2	  98
   2	 100
   2	 106
   2	 108
   2	 110
   2	 112
   2	 113
   2	 114
   2	 115
   2	 116
   2	 117
   2	 118
   3	  11
   3	  14
   3	  18
   3	  20
   3	  21
   3	  22
   3	  23
   3	  24
   3	  27
   3	  28
   3	  29
   3	  33
   3	  36
   3	  38
   3	  41
   3	  43
   3	  46
   3	  47
   3	  48
   3	  50
   3	  51
   3	  52
   3	  55
   3	  56
   3	  65
   3	  67
   3	  69
   3	  72
   3	  82
   3	  83
   3	  86
   3	  87
   3	  89
   3	  90
   3	  94
   3	  96
   3	  98
   3	 101
   3	 104
   3	 109
   3	 110
   3	 113
   3	 114
   3	 115
   3	 116
   3	 118
   4	  14
   4	  15
   4	  16
   4	  18
   4	  19
   4	  23
   4	  31
   4	  33
   4	  34
   4	  35
   4	  36
   4	  38
   4	  39
   4	  41
   4	  47
   4	  53
   4	  55
   4	  57
   4	  58
   4	  60
   4	  63
   4	  70
   4	  72
   4	  75
   4	  78
   4	  86
   4	  87
   4	  91
   4	  93
   4	  98
   4	 100
   4	 101
   4	 103
   4	 107
   4	 110
   4	 116
   4	 119
   5	   7
   5	   8
   5	   9
   5	  10
   5	  13
   5	  16
   5	  17
   5	  21
   5	  22
   5	  25
   5	  26
   5	  27
   5	  30
   5	  34
   5	  35
   5	  36
   5	  37
   5	  39
   5	  40
   5	  41
   5	  42
   5	  47
   5	  50
   5	  51
   5	  52
   5	  56
   5	  57
   5	  60
   5	  61
   5	  62
   5	  64
   5	  70
   5	  72
   5	  73
   5	  80
   5	  81
   5	  84
   5	  85
   5	  87
   5	  89
   5	  92
   5	  93
   5	  95
   5	  96
   5	  98
   5	 103
   5	 104
   5	 107
   5	 110
   5	 114
   5	 116
   5	 118
   5	 119
   6	  11
   6	  12
   6	  15
   6	  17
   6	  20
   6	  27
   6	  28
   6	  31
   6	  33
   6	  37
   6	  39
   6	  45
   6	  47
   6	  48
   6	  49
   6	  54
   6	  56
   6	  57
   6	  66
   6	  67
   6	  68
   6	  70
   6	  71
   6	  75
   6	  76
   6	  78
   6	  79
   6	  80
   6	  83
   6	  87
   6	  90
   6	  92
   6	  93
   6	  94
   6	  98
   6	  99
   6	 101
   6	 103
   6	 106
   6	 111
   6	 112
   6	 113
   6	 114
   6	 116
   6	 118
   7	   8
   7	  13
   7	  14
   7	  15
   7	  17
   7	  19
   7	  21
   7	  24
   7	  25
   7	  27
   7	  32
   7	  33
   7	  36
   7	  42
   7	  45
   7	  46
   7	  47
   7	  49
   7	  51
   7	  53
   7	  56
   7	  60
   7	  71
   7	  75
   7	  76
   7	  77
   7	  79
   7	  83
   7	  84
   7	  85
   7	  87
   7	  88
   7	  89
   7	  92
   7	  94
   7	  99
   7	 100
   7	 107
   7	 110
   7	 112
   7	 113
   7	 114
   7	 116
   8	   9
   8	  10
   8	  16
   8	  23
   8	  24
   8	  25
   8	  26
   8	  32
   8	  36
   8	  37
   8	  38
   8	  42
   8	  44
   8	  45
   8	  48
   8	  51
   8	  56
   8	  62
   8	  63
   8	  64
   8	  67
   8	  70
   8	  75
   8	  77
   8	  80
   8	  81
   8	  83
   8	  84
   8	  85
   8	  88
   8	  93
   8	  95
   8	  96
   8	  98
   8	  99
   8	 101
   8	 102
   8	 104
   8	 109
   8	 113
   8	 114
   8	 115
   9	  10
   9	  12
   9	  15
   9	  22
   9	  24
   9	  31
   9	  39
   9	  40
   9	  44
   9	  46
   9	  47
   9	  48
   9	  49
   9	  51
   9	  53
   9	  60
   9	  61
   9	  63
   9	  64
   9	  65
   9	  72
   9	  74
   9	  80
   9	  83
   9	  84
   9	  87
   9	  89
   9	  92
   9	  94
   9	  97
   9	  99
   9	 100
   9	 104
   9	 106
   9	 108
   9	 109
   9	 111
   9	 115
   9	 119
  10	  14
  10	  15
  10	  17
  10	  19
  10	  21
  10	  23
  10	  25
  10	  30
  10	  33
  10	  34
  10	  39
  10	  40
  10	  42
  10	  46
  10	  49
  10	  50
  10	  51
  10	  52
  10	  53
  10	  55
  10	  60
  10	  61
  10	  62
  10	  67
  10	  68
  10	  69
  10	  71
  10	  72
  10	  74
  10	  75
  10	  77
  10	  79
  10	  80
  10	  85
  10	  86
  10	  87
  10	  88
  10	  89
  10	  96
  10	  98
  10	 101
  10	 103
  10	 104
  10	 106
  10	 107
  10	 115
  10	 117
  10	 118
  11	  13
  11	  20
  11	  21
  11	  25
  11	  27
  11	  29
  11	  30
  11	  31
  11	  37
  11	  38
  11	  41
  11	  42
  11	  44
  11	  46
  11	  47
  11	  51
  11	  52
  11	  53
  11	  69
  11	  71
  11	  73
  11	  75
  11	  76
  11	  80
  11	  81
  11	  82
  11	  83
  11	  84
  11	  86
  11	  90
  11	  93
  11	  97
  11	  99
  11	 102
  11	 104
  11	 105
  11	 108
  11	 109
  11	 111
  12	  15
  12	  16
  12	  17
  12	  24
  12	  27
  12	  28
  12	  30
  12	  36
  12	  41
  12	  44
  12	  45
  12	  47
  12	  53
  12	  57
  12	  68
  12	  69
  12	  70
  12	  73
  12	  75
  12	  76
  12	  78
  12	  79
  12	  80
  12	  82
  12	  83
  12	  86
  12	  89
  12	  91
  12	  96
  12	  98
  12	  99
  12	 101
  12	 102
  12	 104
  12	 106
  12	 108
  12	 110
  12	 112
  12	 118
  12	 119
  13	  16
  13	  18
  13	  20
  13	  22
  13	  24
  13	  25
  13	  32
  13	  39
  13	  42
  13	  45
  13	  46
  13	  47
  13	  48
  13	  51
  13	  52
  13	  55
  13	  59
  13	  61
  13	  62
  13	  65
  13	  72
  13	  73
  13	  74
  13	  75
  13	  76
  13	  78
  13	  82
  13	  84
  13	  87
  13	  90
  13	  94
  13	  95
  13	  97
  13	 100
  13	 102
  13	 103
  13	 105
  13	 108
  13	 110
  13	 114
  13	 116
  13	 118
  14	  15
  14	  16
  14	  17
  14	  18
  14	  24
  14	  25
  14	  26
  14	  27
  14	  30
  14	  33
  14	  34
  14	  39
  14	  43
  14	  46
  14	  49
  14	  50
  14	  53
  14	  54
  14	  57
  14	  61
  14	  63
  14	  64
  14	  65
  14	  76
  14	  79
  14	  80
  14	  81
  14	  84
  14	  88
  14	  90
  14	  94
  14	  98
  14	 102
  14	 103
  14	 104
  14	 112
  14	 114
  14	 117
  15	  18
  15	  19
  15	  22
  15	  27
  15	  34
  15	  35
  15	  38
  15	  41
  15	  44
  15	  46
  15	  48
  15	  51
  15	  52
  15	  54
  15	  59
  15	  61
  15	  65
  15	  67
  15	  69
  15	  71
  15	  73
  15	  74
  15	  80
  15	  83
  15	  88
  15	  90
  15	  92
  15	  93
  15	  95
  15	 101
  15	 104
  15	 105
  15	 107
  15	 108
  15	 111
  15	 113
  15	 117
  15	 119
  16	  18
  16	  20
  16	  21
  16	  22
  16	  24
  16	  25
  16	  26
  16	  28
  16	  30
  16	  36
  16	  37
  16	  38
  16	  39
  16	  41
  16	  42
  16	  43
  16	  45
  16	  50
  16	  58
  16	  60
  16	  61
  16	  64
  16	  65
  16	  66
  16	  70
  16	  73
  16	  74
  16	  77
  16	  80
  16	  81
  16	  83
  16	  86
  16	  89
  16	  91
  16	  92
  16	  97
  16	  99
  16	 101
  16	 102
  16	 105
  16	 109
  16	 112
  16	 113
  16	 116
  17	  20
  17	  22
  17	  24
  17	  25
  17	  27
  17	  29
  17	  35
  17	  38
  17	  39
  17	  40
  17	  44
  17	  46
  17	  47
  17	  50
  17	  51
  17	  52
  17	  54
  17	  59
  17	  62
  17	  64
  17	  74
  17	  76
  17	  78
  17	  81
  17	  82
  17	  90
  17	  92
  17	  93
  17	  94
  17	 101
  17	 107
  17	 112
  18	  19
  18	  20
  18	  24
  18	  25
  18	  26
  18	  32
  18	  35
  18	  36
  18	  37
  18	  39
  18	  41
  18	  42
  18	  44
  18	  45
  18	  50
  18	  51
  18	  56
  18	  58
  18	  60
  18	  61
  18	  63
  18	  64
  18	  66
  18	  67
  18	  70
  18	  74
  18	  76
  18	  77
  18	  81
  18	  82
  18	  83
  18	  84
  18	  85
  18	  88
  18	  91
  18	  96
  18	  98
  18	  99
  18	 100
  18	 101
  18	 102
  18	 104
  18	 106
  18	 108
  18	 112
  18	 113
  19	  20
  19	  21
  19	  25
  19	  27
  19	  28
  19	  32
  19	  38
  19	  39
  19	  40
  19	  44
  19	  47
  19	  49
  19	  52
  19	  53
  19	  54
  19	  56
  19	  57
  19	  58
  19	  61
  19	  63
  19	  71
  19	  75
  19	  80
  19	  84
  19	  87
  19	  89
  19	  91
  19	  93
  19	  96
  19	 101
  19	 103
  19	 105
  19	 106
  19	 111
  19	 112
  19	 113
  19	 115
  19	 116
  19	 117
  20	  22
  20	  25
  20	  27
  20	  28
  20	  29
  20	  31
  20	  33
  20	  35
  20	  38
  20	  39
  20	  40
  20	  42
  20	  43
  20	  44
  20	  48
  20	  49
  20	  51
  20	  54
  20	  56
  20	  57
  20	  58
  20	  64
  20	  65
  20	  66
  20	  67
  20	  68
  20	  69
  20	  71
  20	  73
  20	  74
  20	  75
  20	  78
  20	  79
  20	  80
  20	  81
  20	  82
  20	  83
  20	  88
  20	  89
  20	  90
  20	  91
  20	  92
  20	  94
  20	  99
  20	 104
  20	 106
  20	 107
  20	 110
  20	 112
  20	 113
  20	 114
  20	 115
  20	 116
  20	 117
  20	 119
  21	  22
  21	  23
  21	  24
  21	  31
  21	  32
  21	  34
  21	  36
  21	  37
  21	  42
  21	  44
  21	  50
  21	  52
  21	  54
  21	  56
  21	  57
  21	  62
  21	  63
  21	  64
  21	  65
  21	  68
  21	  70
  21	  71
  21	  72
  21	  80
  21	  82
  21	  83
  21	  84
  21	  85
  21	  86
  21	  88
  21	  91
  21	  92
  21	  97
  21	 102
  21	 106
  21	 107
  21	 108
  21	 109
  21	 112
  21	 114
  21	 115
  21	 116
  21	 119
  22	  24
  22	  25
  22	  28
  22	  29
  22	  32
  22	  35
  22	  36
  22	  37
  22	  38
  22	  43
  22	  44
  22	  48
  22	  49
  22	  54
  22	  56
  22	  61
  22	  63
  22	  64
  22	  65
  22	  71
  22	  72
  22	  76
  22	  77
  22	  78
  22	  80
  22	  81
  22	  84
  22	  87
  22	  90
  22	  91
  22	  93
  22	 104
  22	 109
  22	 112
  22	 113
  22	 115
  22	 116
  22	 118
  22	 119
  23	  30
  23	  31
  23	  32
  23	  34
  23	  39
  23	  40
  23	  43
  23	  44
  23	  45
  23	  46
  23	  47
  23	  49
  23	  50
  23	  51
  23	  57
  23	  60
  23	  64
  23	  67
  23	  70
  23	  75
  23	  79
  23	  81
  23	  82
  23	  83
  23	  85
  23	  86
  23	  89
  23	  91
  23	  92
  23	  95
  23	  97
  23	  99
  23	 100
  23	 101
  23	 103
  23	 105
  23	 106
  23	 107
  23	 108
  23	 112
  23	 119
  24	  25
  24	  33
  24	  34
  24	  36
  24	  39
  24	  40
  24	  50
  24	  51
  24	  55
  24	  57
  24	  60
  24	  62
  24	  63
  24	  64
  24	  67
  24	  69
  24	  71
  24	  72
  24	  75
  24	  78
  24	  83
  24	  84
  24	  91
  24	  92
  24	  93
  24	  95
  24	  97
  24	 103
  24	 104
  24	 107
  24	 110
  24	 113
  24	 114
  24	 116
  24	 119
  25	  32
  25	  35
  25	  36
  25	  38
  25	  40
  25	  43
  25	  48
  25	  50
  25	  51
  25	  53
  25	  56
  25	  59
  25	  60
  25	  62
  25	  63
  25	  66
  25	  69
  25	  70
  25	  72
  25	  74
  25	  77
  25	  78
  25	  79
  25	  80
  25	  85
  25	  86
  25	  88
  25	  89
  25	  97
  25	  98
  25	 102
  25	 103
  25	 111
  25	 113
  25	 116
  25	 118
  26	  27
  26	  30
  26	  39
  26	  45
  26	  47
  26	  48
  26	  50
  26	  51
  26	  53
  26	  55
  26	  58
  26	  59
  26	  60
  26	  62
  26	  63
  26	  64
  26	  68
  26	  73
  26	  82
  26	  83
  26	  84
  26	  85
  26	  88
  26	  91
  26	  93
  26	  95
  26	  99
  26	 100
  26	 101
  26	 102
  26	 104
  26	 115
  26	 117
  27	  28
  27	  29
  27	  30
  27	  31
  27	  39
  27	  40
  27	  42
  27	  43
  27	  44
  27	  49
  27	  56
  27	  59
  27	  62
  27	  67
  27	  71
  27	  73
  27	  74
  27	  82
  27	  83
  27	  86
  27	  88
  27	  93
  27	  99
  27	 100
  27	 103
  27	 108
  27	 110
  27	 112
  27	 114
  27	 115
  27	 118
  28	  32
  28	  38
  28	  41
  28	  43
  28	  46
  28	  47
  28	  48
  28	  49
  28	  52
  28	  53
  28	  57
  28	  58
  28	  59
  28	  60
  28	  65
  28	  68
  28	  71
  28	  72
  28	  74
  28	  75
  28	  76
  28	  77
  28	  81
  28	  84
  28	  85
  28	  86
  28	  88
  28	  91
  28	  92
  28	  93
  28	  95
  28	  97
  28	  99
  28	 100
  28	 101
  28	 103
  28	 111
  28	 115
  28	 116
  28	 118
  29	  30
  29	  32
  29	  34
  29	  35
  29	  41
  29	  43
  29	  44
  29	  45
  29	  46
  29	  47
  29	  49
  29	  51
  29	  53
  29	  56
  29	  60
  29	  62
  29	  63
  29	  64
  29	  66
  29	  73
  29	  76
  29	  80
  29	  82
  29	  84
  29	  86
  29	  87
  29	  88
  29	  90
  29	  99
  29	 104
  29	 105
  29	 107
  29	 108
  29	 111
  29	 112
  29	 114
  29	 115
  29	 116
  29	 119
  30	  33
  30	  34
  30	  41
  30	  42
  30	  43
  30	  45
  30	  46
  30	  47
  30	  48
  30	  50
  30	  51
  30	  57
  30	  58
  30	  59
  30	  61
  30	  64
  30	  65
  30	  66
  30	  72
  30	  73
  30	  75
  30	  82
  30	  89
  30	  91
  30	  92
  30	  95
  30	  96
  30	  99
  30	 102
  30	 103
  30	 104
  30	 107
  30	 108
  30	 110
  30	 112
  30	 113
  30	 119
  31	  32
  31	  33
  31	  34
  31	  36
  31	  38
  31	  40
  31	  42
  31	  43
  31	  45
  31	  46
  31	  50
  31	  53
  31	  55
  31	  58
  31	  60
  31	  61
  31	  63
  31	  64
  31	  65
  31	  68
  31	  69
  31	  70
  31	  73
  31	  78
  31	  85
  31	  86
  31	  87
  31	  89
  31	  94
  31	  97
  31	  99
  31	 101
  31	 111
  31	 112
  31	 113
  31	 114
  31	 117
  31	 119
  32	  36
  32	  37
  32	  43
  32	  46
  32	  51
  32	  55
  32	  57
  32	  62
  32	  65
  32	  67
  32	  68
  32	  69
  32	  71
  32	  74
  32	  79
  32	  80
  32	  81
  32	  84
  32	  85
  32	  86
  32	  87
  32	  89
  32	  90
  32	  91
  32	  93
  32	  96
  32	  97
  32	 103
  32	 104
  32	 105
  32	 106
  32	 107
  32	 108
  32	 110
  32	 111
  32	 114
  32	 116
  32	 118
  33	  34
  33	  36
  33	  40
  33	  42
  33	  43
  33	  45
  33	  47
  33	  51
  33	  52
  33	  53
  33	  55
  33	  56
  33	  58
  33	  60
  33	  72
  33	  79
  33	  89
  33	  91
  33	  92
  33	  95
  33	  97
  33	  99
  33	 100
  33	 101
  33	 102
  33	 104
  33	 105
  33	 106
  33	 109
  33	 112
  33	 113
  33	 114
  33	 115
  33	 117
  33	 118
  33	 119
  34	  36
  34	  38
  34	  40
  34	  41
  34	  42
  34	  43
  34	  45
  34	  46
  34	  52
  34	  56
  34	  57
  34	  59
  34	  61
  34	  64
  34	  69
  34	  70
  34	  74
  34	  76
  34	  77
  34	  78
  34	  80
  34	  84
  34	  85
  34	  87
  34	  90
  34	  92
  34	  93
  34	  96
  34	  99
  34	 103
  34	 112
  34	 115
  34	 119
  35	  36
  35	  37
  35	  38
  35	  39
  35	  40
  35	  45
  35	  48
  35	  52
  35	  54
  35	  58
  35	  59
  35	  62
  35	  65
  35	  66
  35	  68
  35	  70
  35	  72
  35	  73
  35	  76
  35	  77
  35	  78
  35	  80
  35	  83
  35	  84
  35	  88
  35	  91
  35	  92
  35	  96
  35	 101
  35	 106
  35	 108
  35	 109
  35	 111
  35	 114
  35	 115
  35	 117
  36	  40
  36	  41
  36	  42
  36	  43
  36	  45
  36	  51
  36	  56
  36	  59
  36	  60
  36	  63
  36	  64
  36	  65
  36	  66
  36	  68
  36	  71
  36	  73
  36	  76
  36	  77
  36	  79
  36	  81
  36	  88
  36	  94
  36	  95
  36	  96
  36	  97
  36	 102
  36	 103
  36	 104
  36	 107
  36	 110
  36	 112
  36	 113
  36	 114
  36	 119
  37	  38
  37	  41
  37	  45
  37	  46
  37	  47
  37	  52
  37	  54
  37	  55
  37	  58
  37	  60
  37	  61
  37	  64
  37	  67
  37	  68
  37	  69
  37	  70
  37	  71
  37	  75
  37	  79
  37	  81
  37	  84
  37	  92
  37	  93
  37	  96
  37	  98
  37	 102
  37	 107
  37	 108
  37	 112
  37	 114
  37	 115
  37	 117
  37	 118
  38	  39
  38	  43
  38	  47
  38	  51
  38	  58
  38	  59
  38	  60
  38	  61
  38	  62
  38	  64
  38	  68
  38	  69
  38	  72
  38	  74
  38	  75
  38	  77
  38	  80
  38	  81
  38	  82
  38	  84
  38	  85
  38	  90
  38	  92
  38	  93
  38	  95
  38	 103
  38	 113
  38	 115
  38	 117
  38	 119
  39	  40
  39	  45
  39	  46
  39	  49
  39	  50
  39	  51
  39	  56
  39	  58
  39	  59
  39	  64
  39	  69
  39	  72
  39	  73
  39	  80
  39	  84
  39	  85
  39	  88
  39	  89
  39	  90
  39	  91
  39	  92
  39	  93
  39	  94
  39	  95
  39	  98
  39	 101
  39	 108
  39	 110
  39	 113
  39	 118
  40	  42
  40	  43
  40	  46
  40	  50
  40	  51
  40	  52
  40	  53
  40	  54
  40	  55
  40	  56
  40	  60
  40	  62
  40	  63
  40	  65
  40	  67
  40	  71
  40	  72
  40	  77
  40	  81
  40	  84
  40	  85
  40	  86
  40	  92
  40	  95
  40	  99
  40	 100
  40	 101
  40	 103
  40	 104
  40	 105
  40	 109
  40	 112
  40	 113
  40	 114
  40	 116
  40	 117
  40	 119
  41	  43
  41	  44
  41	  45
  41	  47
  41	  55
  41	  56
  41	  59
  41	  63
  41	  64
  41	  67
  41	  71
  41	  79
  41	  81
  41	  86
  41	  90
  41	  91
  41	  98
  41	 103
  41	 104
  41	 105
  41	 107
  41	 109
  41	 111
  41	 113
  41	 118
  41	 119
  42	  44
  42	  46
  42	  50
  42	  54
  42	  55
  42	  56
  42	  58
  42	  60
  42	  62
  42	  63
  42	  68
  42	  69
  42	  71
  42	  73
  42	  77
  42	  81
  42	  83
  42	  87
  42	  91
  42	  93
  42	  95
  42	  96
  42	  99
  42	 100
  42	 101
  42	 102
  42	 105
  42	 107
  42	 111
  42	 119
  43	  44
  43	  45
  43	  49
  43	  50
  43	  51
  43	  55
  43	  56
  43	  57
  43	  61
  43	  63
  43	  64
  43	  68
  43	  72
  43	  74
  43	  75
  43	  77
  43	  79
  43	  80
  43	  82
  43	  83
  43	  85
  43	  86
  43	  87
  43	  89
  43	  91
  43	  93
  43	  96
  43	  98
  43	 100
  43	 101
  43	 105
  43	 106
  43	 109
  43	 114
  43	 116
  43	 118
  44	  46
  44	  51
  44	  52
  44	  55
  44	  61
  44	  62
  44	  65
  44	  66
  44	  67
  44	  68
  44	  69
  44	  73
  44	  78
  44	  79
  44	  81
  44	  83
  44	  84
  44	  86
  44	  96
  44	  97
  44	  98
  44	 100
  44	 101
  44	 102
  44	 103
  44	 112
  44	 114
  44	 117
  45	  46
  45	  47
  45	  49
  45	  51
  45	  54
  45	  56
  45	  57
  45	  59
  45	  63
  45	  65
  45	  66
  45	  74
  45	  75
  45	  77
  45	  79
  45	  81
  45	  82
  45	  84
  45	  88
  45	  90
  45	  94
  45	 100
  45	 103
  45	 106
  45	 109
  45	 110
  45	 116
  45	 118
  45	 119
  46	  47
  46	  50
  46	  52
  46	  54
  46	  57
  46	  70
  46	  77
  46	  78
  46	  91
  46	  94
  46	  95
  46	  96
  46	  98
  46	 101
  46	 103
  46	 104
  46	 105
  46	 107
  46	 112
  46	 113
  46	 117
  46	 118
  46	 119
  47	  48
  47	  50
  47	  51
  47	  52
  47	  55
  47	  62
  47	  65
  47	  66
  47	  69
  47	  72
  47	  76
  47	  82
  47	  83
  47	  84
  47	  85
  47	  87
  47	  89
  47	  90
  47	  92
  47	  96
  47	  98
  47	  99
  47	 102
  47	 103
  47	 109
  47	 112
  47	 113
  47	 114
  47	 116
  47	 118
  48	  50
  48	  53
  48	  59
  48	  61
  48	  62
  48	  65
  48	  66
  48	  69
  48	  72
  48	  86
  48	  87
  48	  90
  48	  92
  48	  93
  48	  94
  48	  96
  48	  97
  48	 100
  48	 103
  48	 112
  48	 114
  48	 117
  48	 118
  49	  53
  49	  55
  49	  57
  49	  59
  49	  64
  49	  66
  49	  67
  49	  74
  49	  77
  49	  80
  49	  81
  49	  82
  49	  83
  49	  86
  49	  87
  49	  89
  49	  91
  49	  92
  49	  95
  49	  96
  49	  99
  49	 105
  49	 109
  49	 110
  49	 112
  49	 113
  49	 116
  49	 117
  49	 119
  50	  54
  50	  55
  50	  56
  50	  61
  50	  62
  50	  67
  50	  72
  50	  75
  50	  79
  50	  80
  50	  85
  50	  87
  50	  94
  50	  95
  50	  99
  50	 100
  50	 107
  50	 109
  50	 114
  50	 115
  50	 117
  51	  53
  51	  55
  51	  57
  51	  58
  51	  63
  51	  64
  51	  65
  51	  66
  51	  68
  51	  72
  51	  76
  51	  79
  51	  84
  51	  85
  51	  87
  51	  89
  51	  90
  51	  91
  51	  92
  51	  93
  51	  97
  51	  98
  51	 102
  51	 104
  51	 106
  51	 107
  51	 114
  51	 115
  51	 116
  51	 117
  51	 119
  52	  53
  52	  54
  52	  57
  52	  58
  52	  59
  52	  61
  52	  65
  52	  68
  52	  71
  52	  74
  52	  78
  52	  80
  52	  81
  52	  83
  52	  84
  52	  85
  52	  86
  52	  87
  52	  88
  52	  92
  52	 103
  52	 104
  52	 105
  52	 108
  52	 109
  52	 110
  52	 111
  52	 112
  52	 113
  52	 114
  52	 116
  52	 117
  52	 118
  52	 119
  53	  55
  53	  57
  53	  58
  53	  59
  53	  60
  53	  61
  53	  63
  53	  66
  53	  68
  53	  69
  53	  73
  53	  76
  53	  78
  53	  79
  53	  81
  53	  82
  53	  83
  53	  87
  53	  88
  53	  90
  53	  91
  53	  92
  53	  96
  53	  98
  53	 105
  53	 107
  53	 111
  53	 113
  53	 114
  53	 116
  54	  55
  54	  56
  54	  66
  54	  68
  54	  71
  54	  74
  54	  79
  54	  89
  54	  90
  54	  94
  54	  97
  54	  99
  54	 104
  54	 105
  54	 108
  54	 109
  54	 111
  54	 113
  54	 114
  54	 119
  55	  57
  55	  58
  55	  60
  55	  61
  55	  63
  55	  70
  55	  73
  55	  74
  55	  75
  55	  77
  55	  81
  55	  82
  55	  85
  55	  86
  55	  90
  55	  94
  55	  95
  55	  98
  55	 100
  55	 101
  55	 102
  55	 108
  55	 109
  55	 110
  55	 111
  55	 116
  55	 117
  56	  57
  56	  60
  56	  62
  56	  64
  56	  67
  56	  72
  56	  74
  56	  80
  56	  81
  56	  82
  56	  83
  56	  87
  56	  88
  56	  90
  56	  92
  56	  93
  56	  94
  56	  96
  56	  97
  56	  99
  56	 103
  56	 108
  56	 109
  56	 111
  56	 112
  56	 114
  56	 119
  57	  60
  57	  65
  57	  67
  57	  68
  57	  69
  57	  74
  57	  75
  57	  82
  57	  83
  57	  85
  57	  87
  57	  89
  57	  90
  57	  91
  57	  92
  57	  94
  57	  95
  57	  96
  57	  98
  57	 103
  57	 104
  57	 105
  57	 108
  57	 111
  57	 112
  57	 114
  57	 115
  57	 116
  57	 119
  58	  61
  58	  62
  58	  65
  58	  66
  58	  69
  58	  71
  58	  72
  58	  74
  58	  75
  58	  77
  58	  79
  58	  80
  58	  81
  58	  84
  58	  93
  58	  95
  58	  97
  58	 100
  58	 103
  58	 105
  58	 107
  58	 108
  58	 113
  58	 116
  59	  60
  59	  62
  59	  66
  59	  67
  59	  68
  59	  70
  59	  71
  59	  74
  59	  75
  59	  76
  59	  79
  59	  81
  59	  82
  59	  84
  59	  88
  59	  89
  59	  90
  59	  91
  59	  92
  59	  95
  59	  98
  59	  99
  59	 100
  59	 108
  59	 110
  59	 111
  59	 114
  59	 115
  60	  63
  60	  65
  60	  66
  60	  72
  60	  76
  60	  78
  60	  79
  60	  82
  60	  85
  60	  87
  60	  88
  60	  90
  60	  93
  60	  94
  60	  96
  60	  97
  60	  98
  60	  99
  60	 100
  60	 103
  60	 104
  60	 105
  60	 108
  60	 109
  60	 111
  60	 113
  61	  67
  61	  68
  61	  71
  61	  72
  61	  73
  61	  75
  61	  80
  61	  82
  61	  87
  61	  88
  61	  91
  61	  93
  61	  95
  61	  98
  61	 102
  61	 107
  61	 108
  61	 109
  61	 111
  61	 112
  61	 115
  61	 117
  61	 118
  62	  64
  62	  65
  62	  67
  62	  69
  62	  73
  62	  78
  62	  79
  62	  82
  62	  85
  62	  90
  62	  91
  62	  95
  62	  96
  62	  98
  62	 105
  62	 108
  62	 109
  62	 111
  62	 112
  62	 113
  62	 116
  62	 118
  62	 119
  63	  64
  63	  68
  63	  69
  63	  72
  63	  75
  63	  76
  63	  78
  63	  80
  63	  82
  63	  86
  63	  90
  63	  91
  63	  94
  63	  98
  63	 105
  63	 106
  63	 111
  63	 112
  63	 113
  64	  67
  64	  68
  64	  69
  64	  71
  64	  72
  64	  73
  64	  76
  64	  77
  64	  79
  64	  81
  64	  84
  64	  85
  64	  87
  64	  89
  64	  93
  64	  96
  64	 103
  64	 104
  64	 108
  64	 109
  64	 110
  64	 112
  64	 115
  64	 116
  65	  66
  65	  70
  65	  71
  65	  73
  65	  74
  65	  78
  65	  79
  65	  80
  65	  82
  65	  83
  65	  86
  65	  87
  65	  91
  65	  92
  65	  95
  65	  97
  65	 100
  65	 105
  65	 106
  65	 107
  65	 108
  65	 109
  65	 111
  65	 112
  65	 113
  65	 114
  65	 117
  66	  69
  66	  70
  66	  75
  66	  76
  66	  79
  66	  81
  66	  83
  66	  84
  66	  85
  66	  86
  66	  87
  66	  88
  66	  90
  66	  94
  66	  95
  66	  96
  66	  97
  66	  99
  66	 103
  66	 110
  66	 111
  66	 112
  66	 113
  66	 117
  66	 119
  67	  73
  67	  75
  67	  78
  67	  81
  67	  82
  67	  92
  67	  96
  67	  98
  67	 100
  67	 108
  67	 111
  67	 112
  67	 113
  67	 118
  67	 119
  68	  71
  68	  74
  68	  76
  68	  77
  68	  79
  68	  80
  68	  81
  68	  83
  68	  85
  68	  86
  68	  90
  68	  94
  68	  96
  68	 100
  68	 101
  68	 103
  68	 106
  68	 108
  68	 114
  68	 116
  68	 117
  68	 118
  68	 119
  69	  70
  69	  75
  69	  78
  69	  79
  69	  80
  69	  84
  69	  85
  69	  86
  69	  88
  69	  89
  69	  90
  69	  92
  69	  97
  69	 100
  69	 102
  69	 103
  69	 106
  69	 108
  69	 112
  69	 117
  70	  71
  70	  72
  70	  73
  70	  74
  70	  75
  70	  76
  70	  80
  70	  82
  70	  83
  70	  85
  70	  92
  70	  94
  70	  96
  70	  98
  70	 100
  70	 101
  70	 103
  70	 107
  70	 110
  70	 111
  70	 117
  70	 118
  71	  75
  71	  76
  71	  78
  71	  80
  71	  82
  71	  87
  71	  90
  71	  91
  71	 103
  71	 110
  71	 112
  71	 116
  71	 119
  72	  73
  72	  74
  72	  78
  72	  80
  72	  81
  72	  82
  72	  84
  72	  85
  72	  91
  72	  92
  72	  96
  72	  97
  72	 101
  72	 103
  72	 104
  72	 105
  72	 106
  72	 108
  72	 112
  72	 113
  72	 115
  72	 118
  72	 119
  73	  75
  73	  77
  73	  80
  73	  81
  73	  82
  73	  83
  73	  84
  73	  88
  73	  91
  73	  92
  73	  93
  73	  94
  73	  98
  73	 100
  73	 101
  73	 111
  73	 116
  74	  75
  74	  76
  74	  79
  74	  80
  74	  82
  74	  83
  74	  84
  74	  89
  74	  92
  74	  93
  74	  96
  74	 105
  74	 108
  74	 113
  74	 118
  74	 119
  75	  80
  75	  81
  75	  87
  75	  89
  75	  96
  75	  97
  75	  99
  75	 101
  75	 104
  75	 105
  75	 106
  75	 108
  75	 109
  75	 110
  75	 113
  75	 114
  75	 116
  75	 119
  76	  79
  76	  86
  76	  88
  76	  90
  76	  91
  76	  94
  76	  99
  76	 100
  76	 101
  76	 102
  76	 103
  76	 107
  76	 109
  76	 112
  76	 114
  76	 115
  76	 118
  77	  78
  77	  81
  77	  82
  77	  83
  77	  85
  77	  87
  77	  97
  77	  98
  77	  99
  77	 100
  77	 101
  77	 103
  77	 108
  77	 113
  77	 119
  78	  83
  78	  85
  78	  86
  78	  87
  78	  90
  78	  92
  78	  93
  78	  94
  78	  95
  78	  96
  78	  97
  78	 101
  78	 106
  78	 107
  78	 115
  78	 116
  78	 118
  79	  81
  79	  87
  79	  88
  79	  89
  79	  90
  79	  96
  79	 100
  79	 101
  79	 102
  79	 104
  79	 105
  79	 108
  79	 109
  79	 112
  79	 114
  79	 118
  79	 119
  80	  82
  80	  86
  80	  87
  80	  89
  80	  90
  80	  93
  80	  94
  80	  96
  80	  98
  80	 101
  80	 102
  80	 103
  80	 105
  80	 107
  80	 110
  80	 116
  80	 117
  80	 119
  81	  83
  81	  88
  81	  90
  81	  92
  81	 105
  81	 107
  81	 108
  81	 110
  81	 111
  81	 113
  81	 118
  81	 119
  82	  83
  82	  84
  82	  85
  82	  88
  82	  90
  82	  91
  82	  96
  82	 102
  82	 103
  82	 104
  82	 107
  82	 111
  82	 112
  83	  86
  83	  93
  83	  94
  83	  99
  83	 100
  83	 101
  83	 105
  83	 108
  83	 110
  83	 111
  83	 116
  83	 117
  84	  85
  84	  87
  84	  90
  84	  92
  84	  94
  84	  95
  84	  96
  84	  98
  84	 100
  84	 103
  84	 105
  84	 108
  84	 110
  84	 112
  84	 116
  84	 118
  84	 119
  85	  87
  85	  88
  85	  89
  85	  92
  85	  96
  85	  98
  85	  99
  85	 100
  85	 101
  85	 102
  85	 104
  85	 107
  85	 108
  85	 109
  85	 110
  85	 112
  85	 117
  85	 119
  86	  90
  86	  92
  86	  94
  86	 101
  86	 107
  86	 108
  86	 109
  86	 111
  86	 112
  86	 115
  86	 116
  86	 117
  86	 119
  87	  89
  87	  90
  87	  91
  87	  92
  87	  93
  87	  94
  87	  95
  87	  96
  87	  98
  87	 106
  87	 110
  87	 114
  87	 116
  87	 119
  88	  89
  88	  90
  88	  92
  88	  93
  88	  94
  88	  95
  88	 104
  88	 107
  88	 109
  88	 112
  88	 116
  88	 118
  89	  91
  89	  92
  89	  94
  89	  99
  89	 100
  89	 101
  89	 104
  89	 108
  89	 109
  89	 112
  89	 113
  89	 116
  89	 117
  89	 118
  90	  93
  90	  95
  90	  96
  90	  98
  90	 102
  90	 103
  90	 104
  90	 105
  90	 112
  90	 116
  90	 119
  91	  93
  91	  94
  91	  96
  91	  97
  91	  99
  91	 100
  91	 105
  91	 108
  91	 110
  91	 113
  91	 114
  91	 116
  91	 117
  91	 119
  92	  94
  92	  95
  92	  96
  92	  97
  92	  98
  92	 100
  92	 103
  92	 106
  92	 110
  92	 111
  92	 112
  92	 113
  92	 114
  92	 117
  92	 119
  93	  95
  93	  96
  93	  97
  93	  98
  93	  99
  93	 100
  93	 101
  93	 103
  93	 106
  93	 107
  93	 110
  93	 111
  93	 112
  93	 113
  93	 114
  93	 115
  93	 116
  93	 118
  93	 119
  94	  95
  94	  97
  94	  98
  94	  99
  94	 105
  94	 106
  94	 108
  94	 109
  94	 111
  94	 114
  94	 115
  94	 118
  95	  96
  95	  99
  95	 102
  95	 104
  95	 106
  95	 110
  95	 116
  96	  97
  96	  98
  96	  99
  96	 101
  96	 105
  96	 106
  96	 108
  96	 110
  96	 111
  96	 116
  96	 117
  97	  98
  97	 105
  97	 106
  97	 107
  97	 108
  97	 111
  97	 112
  97	 113
  97	 118
  97	 119
  98	 100
  98	 102
  98	 104
  98	 110
  98	 116
  99	 101
  99	 104
  99	 108
  99	 110
  99	 111
  99	 112
  99	 116
  99	 117
  99	 118
  99	 119
 100	 104
 100	 106
 100	 109
 100	 111
 100	 112
 100	 116
 100	 117
 100	 118
 100	 119
 101	 106
 101	 109
 101	 110
 101	 111
 101	 115
 101	 118
 101	 119
 102	 104
 102	 105
 102	 106
 102	 110
 102	 113
 102	 114
 102	 115
 102	 118
 102	 119
 103	 105
 103	 107
 103	 108
 103	 111
 103	 115
 103	 119
 104	 107
 104	 111
 104	 112
 104	 113
 104	 114
 104	 116
 104	 118
 105	 106
 105	 109
 105	 111
 105	 114
 105	 115
 105	 117
 105	 119
 106	 110
 106	 111
 106	 114
 106	 115
 106	 116
 106	 117
 106	 119
 107	 110
 107	 114
 107	 115
 107	 118
 107	 119
 108	 111
 108	 113
 108	 114
 108	 115
 108	 116
 108	 117
 109	 119
 110	 112
 110	 113
 110	 114
 111	 112
 111	 114
 111	 118
 111	 119
 112	 114
 112	 117
 113	 114
 113	 115
 113	 116
 113	 117
 113	 118
 113	 119
 114	 115
 114	 116
 114	 117
 114	 118
 115	 118
 115	 119
 117	 119
;
